\ENCODING=ISO-8859-1
\Problem name: Model

Minimize
 obj: 58 x1 + 97 x2 + 91 x3 + 106 x4 + 104 x5 + 92 x6 + 95 x7 + 103 x8 + 92 x9
      + 101 x10 + 94 x11 + 105 x12 + 97 x13 + 93 x14 + 53 x15 + 52 x16 + 48 x17
      + 105 x18 + 102 x19 + 48 x20 + 52 x21 + 79 x22 + 59 x23 + 95 x24 + 53 x25
      + 53 x26 + 49 x27 + 52 x28 + 45 x29 + 48 x30 + 67 x31 + 101 x32 + 50 x33
      + 99 x34 + 100 x35 + 103 x36 + 103 x37 + 97 x38 + 99 x39 + 94 x40
      + 46 x41 + 51 x42 + 105 x43 + 51 x44 + 98 x45 + 54 x46 + 49 x47 + 50 x48
      + 52 x49 + 51 x50 + 45 x51 + 100 x52 + 54 x53 + 102 x54 + 94 x55
      + 101 x56 + 100 x57 + 102 x58 + 49 x59 + 54 x60 + 53 x61 + 90 x62
      + 47 x63 + 109 x64 + 45 x65 + 48 x66 + 45 x67 + 101 x68 + 68 x69 + 46 x70
      + 94 x71 + 45 x72 + 45 x73 + 54 x74 + 51 x75 + 68 x76 + 71 x77 + 104 x78
      + 54 x79 + 52 x80 + 48 x81 + 47 x82 + 48 x83 + 106 x84 + 51 x85 + 49 x86
      + 95 x87 + 100 x88 + 47 x89 + 73 x90 + 50 x91 + 48 x92 + 52 x93 + 120 x94
      + 102 x95 + 108 x96 + 107 x97 + 107 x98 + 105 x99 + 91 x100 + 90 x101
      + 53 x102 + 45 x103 + 52 x104 + 98 x105 + 54 x106 + 53 x107 + 49 x108
      + 53 x109 + 59 x110 + 79 x111 + 48 x112 + 46 x113 + 54 x114 + 45 x115
      + 45 x116 + 214 x117 + 52 x118 + 47 x119 + 244 x120 + 49 x121 + 52 x122
      + 56 x123 + 54 x124 + 50 x125 + 47 x126 + 124 x127 + 51 x128 + 46 x129
      + 50 x130 + 50 x131 + 45 x132 + 45 x133 + 151 x134 + 114 x135 + 82 x136
      + 53 x137 + 54 x138 + 46 x139 + 50 x140 + 54 x141 + 220 x142 + 49 x143
      + 51 x144 + 108 x145 + 119 x146 + 72 x147 + 53 x148 + 80 x149 + 49 x150
      + 255 x151 + 90 x152 + 197 x153 + 52 x154 + 55 x155 + 48 x156 + 99 x157
      + 53 x158 + 53 x159 + 49 x160 + 51 x161 + 52 x162 + 133 x163 + 49 x164
      + 48 x165 + 51 x166 + 94 x167 + 46 x168 + 45 x169 + 49 x170 + 51 x171
      + 100 x172 + 187 x173 + 55 x174 + 99 x175 + 53 x176 + 110 x177 + 130 x178
      + 51 x179 + 54 x180 + 109 x181 + 52 x182 + 45 x183 + 46 x184 + 53 x185
      + 50 x186 + 199 x187 + 104 x188 + 98 x189 + 101 x190 + 107 x191 + 97 x192
      + 92 x193 + 106 x194 + 101 x195 + 94 x196 + 108 x197 + 156 x198
      + 326 x199 + 52 x200 + 53 x201 + 48 x202 + 53 x203 + 50 x204 + 54 x205
      + 45 x206 + 53 x207 + 54 x208 + 52 x209 + 47 x210 + 97 x211 + 50 x212
      + 48 x213 + 102 x214 + 47 x215 + 45 x216 + 54 x217 + 206 x218 + 126 x219
      + 51 x220 + 46 x221 + 49 x222 + 50 x223 + 50 x224 + 47 x225 + 55 x226
      + 50 x227 + 53 x228 + 131 x229 + 48 x230 + 54 x231 + 52 x232 + 53 x233
      + 47 x234 + 53 x235 + 51 x236 + 53 x237 + 54 x238 + 53 x239 + 47 x240
      + 46 x241 + 45 x242 + 56 x243 + 47 x244 + 46 x245 + 178 x246 + 104 x247
      + 101 x248 + 97 x249 + 92 x250 + 98 x251 + 109 x252 + 98 x253 + 94 x254
      + 106 x255 + 106 x256 + 49 x257 + 53 x258 + 126 x259 + 45 x260 + 51 x261
      + 49 x262 + 53 x263 + 54 x264 + 52 x265 + 46 x266 + 48 x267 + 49 x268
      + 54 x269 + 176 x270 + 224 x271 + 46 x272 + 48 x273 + 48 x274 + 45 x275
      + 48 x276 + 53 x277 + 45 x278 + 45 x279 + 53 x280 + 48 x281 + 50 x282
      + 50 x283 + 47 x284 + 53 x285 + 54 x286 + 70 x287 + 48 x288 + 48 x289
      + 48 x290 + 46 x291 + 48 x292 + 54 x293 + 242 x294 + 103 x295 + 102 x296
      + 99 x297 + 104 x298 + 93 x299 + 97 x300 + 93 x301 + 100 x302 + 98 x303
      + 97 x304 + 102 x305 + 47 x306 + 109 x307 + 86 x308 + 53 x309 + 50 x310
      + 47 x311 + 47 x312 + 47 x313 + 49 x314 + 53 x315 + 54 x316 + 151 x317
      + 46 x318 + 52 x319 + 51 x320 + 47 x321 + 52 x322 + 53 x323 + 94 x324
      + 46 x325 + 102 x326 + 102 x327 + 221 x328 + 90 x329 + 99 x330 + 107 x331
      + 92 x332 + 106 x333 + 92 x334 + 105 x335 + 107 x336 + 96 x337 + 53 x338
      + 48 x339 + 51 x340 + 52 x341 + 54 x342 + 173 x343 + 95 x344 + 105 x345
      + 93 x346 + 97 x347 + 98 x348 + 92 x349 + 100 x350 + 104 x351 + 104 x352
      + 73 x353 + 177 x354 + 70 x355 + 46 x356 + 52 x357 + 46 x358 + 46 x359
      + 49 x360 + 94 x361 + 45 x362 + 93 x363 + 51 x364 + 54 x365 + 103 x366
      + 50 x367 + 49 x368 + 51 x369 + 92 x370 + 277 x371 + 50 x372 + 49 x373
      + 46 x374 + 103 x375 + 52 x376 + 48 x377 + 48 x378 + 102 x379 + 189 x380
      + 224 x381 + 95 x382 + 52 x383 + 52 x384 + 53 x385 + 102 x386 + 99 x387
      + 46 x388 + 52 x389 + 52 x390 + 68 x391 + 105 x392 + 81 x393 + 66 x394
      + 52 x395 + 108 x396 + 98 x397 + 47 x398 + 50 x399 + 53 x400 + 51 x401
      + 63 x402 + 99 x403 + 95 x404 + 93 x405 + 49 x406 + 52 x407 + 51 x408
      + 53 x409 + 50 x410 + 45 x411 + 50 x412 + 52 x413 + 48 x414 + 51 x415
      + 127 x416 + 100 x417 + 47 x418 + 45 x419 + 47 x420 + 45 x421 + 92 x422
      + 51 x423 + 55 x424 + 108 x425 + 109 x426 + 49 x427 + 46 x428 + 51 x429
      + 48 x430 + 50 x431 + 46 x432 + 51 x433 + 125 x434 + 207 x435 + 53 x436
      + 48 x437 + 89 x438 + 53 x439 + 49 x440 + 53 x441 + 50 x442 + 105 x443
      + 49 x444 + 47 x445 + 47 x446 + 45 x447 + 99 x448 + 51 x449 + 108 x450
      + 54 x451 + 52 x452 + 53 x453 + 106 x454 + 102 x455 + 52 x456 + 48 x457
      + 47 x458 + 51 x459 + 106 x460 + 106 x461 + 95 x462 + 126 x463 + 68 x464
      + 58 x465 + 53 x466 + 47 x467 + 48 x468 + 46 x469 + 53 x470 + 49 x471
      + 100 x472 + 47 x473 + 47 x474 + 96 x475 + 45 x476 + 46 x477 + 54 x478
      + 106 x479 + 109 x480 + 172 x481 + 96 x482 + 95 x483 + 95 x484 + 99 x485
      + 103 x486 + 108 x487 + 100 x488 + 49 x489 + 51 x490 + 49 x491 + 54 x492
      + 45 x493 + 47 x494 + 45 x495 + 107 x496 + 52 x497 + 51 x498 + 92 x499
      + 45 x500 + 111 x501 + 47 x502 + 119 x503 + 45 x504 + 54 x505 + 101 x506
      + 48 x507 + 47 x508 + 50 x509 + 99 x510 + 46 x511 + 48 x512 + 54 x513
      + 47 x514 + 53 x515 + 95 x516 + 92 x517 + 45 x518 + 50 x519 + 47 x520
      + 54 x521 + 90 x522 + 53 x523 + 48 x524 + 107 x525 + 47 x526 + 45 x527
      + 50 x528 + 53 x529 + 45 x530 + 50 x531 + 106 x532 + 46 x533 + 54 x534
      + 90 x535 + 54 x536 + 54 x537 + 50 x538 + 103 x539 + 52 x540 + 51 x541
      + 207 x542 + 93 x543 + 203 x544 + 50 x545 + 48 x546 + 51 x547 + 91 x548
      + 51 x549 + 45 x550 + 48 x551 + 52 x552 + 97 x553 + 45 x554 + 150 x555
      + 100 x556 + 103 x557 + 91 x558 + 99 x559 + 137 x560 + 101 x561 + 72 x562
      + 47 x563 + 101 x564 + 47 x565 + 54 x566 + 46 x567 + 50 x568 + 58 x569
      + 53 x570 + 101 x571 + 100 x572 + 105 x573 + 202 x574 + 52 x575 + 51 x576
      + 46 x577 + 106 x578 + 49 x579 + 50 x580 + 48 x581 + 331 x582 + 110 x583
      + 91 x584 + 89 x585 + 53 x586 + 47 x587 + 53 x588 + 52 x589 + 265 x590
      + 51 x591 + 51 x592 + 90 x593 + 47 x594 + 50 x595 + 48 x596 + 129 x597
      + 50 x598 + 47 x599 + 52 x600 + 45 x601 + 50 x602 + 131 x603 + 362 x604
      + 73 x605 + 98 x606 + 95 x607 + 54 x608 + 60 x609 + 119 x610 + 107 x611
      + 100 x612 + 187 x613 + 106 x614 + 92 x615 + 108 x616 + 98 x617
      + 224 x618 + 50 x619 + 45 x620 + 46 x621 + 52 x622 + 54 x623 + 54 x624
      + 98 x625 + 45 x626 + 91 x627 + 102 x628 + 106 x629 + 47 x630 + 161 x631
      + 53 x632 + 50 x633 + 54 x634 + 45 x635 + 48 x636 + 65 x637 + 50 x638
      + 49 x639 + 50 x640 + 47 x641 + 46 x642 + 49 x643 + 58 x644 + 124 x645
      + 181 x646 + 99 x647 + 106 x648 + 109 x649 + 54 x650 + 108 x651 + 94 x652
      + 53 x653 + 90 x654 + 95 x655 + 113 x656 + 50 x657 + 105 x658 + 109 x659
      + 101 x660 + 97 x661 + 96 x662 + 93 x663 + 106 x664 + 119 x665 + 53 x666
      + 46 x667 + 47 x668 + 47 x669 + 114 x670 + 83 x671 + 232 x672 + 54 x673
      + 135 x674 + 49 x675 + 52 x676 + 96 x677 + 49 x678 + 118 x679 + 134 x680
      + 48 x681 + 53 x682 + 56 x683 + 297 x684 + 96 x685 + 109 x686 + 49 x687
      + 95 x688 + 183 x689 + 45 x690 + 50 x691 + 197 x692 + 54 x693 + 54 x694
      + 206 x695 + 98 x696 + 51 x697 + 51 x698 + 117 x699 + 107 x700 + 52 x701
      + 111 x702 + 51 x703 + 97 x704 + 232 x705 + 54 x706 + 54 x707 + 102 x708
      + 127 x709 + 45 x710 + 46 x711 + 47 x712 + 46 x713 + 54 x714 + 91 x715
      + 46 x716 + 54 x717 + 96 x718 + 98 x719 + 149 x720 + 48 x721 + 49 x722
      + 104 x723 + 58 x724 + 48 x725 + 54 x726 + 52 x727 + 48 x728 + 54 x729
      + 56 x730 + 49 x731 + 147 x732 + 114 x733 + 49 x734 + 48 x735 + 96 x736
      + 79 x737 + 36.04 x738 + 85.1 x739 + 19.56 x740 + 28.68 x741 + 38.08 x742
      + 40.18 x743 + 31.44 x744 + 33.89 x745 + 32.38 x746 + 29.44 x747
      + 20.52 x748 + 25.12 x749 + 49.06 x750 + 43.12 x751 + 36.9 x752
      + 23.8 x753 + 40.65 x754 + 40.65 x755 + 34.2 x756 + 28.88 x757
      + 21.97 x758 + 44.61 x759 + 49.84 x760 + 30.6 x761 + 22.46 x762
      + 26.99 x763 + 33.33 x764 + 40.46 x765 + 31.14 x766 + 34.22 x767
      + 35.6 x768 + 38 x769 + 36.3 x770 + 37.42 x771 + 37.26 x772 + 34.92 x773
      + 78.4 x774 + 35.08 x775 + 25.5 x776 + 22.04 x777 + 27.96 x778 + 67 x779
      + 37.31 x780 + 36.72 x781 + 35.96 x782 + 33.75 x783 + 58.92 x784
      + 38.08 x785 + 63.58 x786 + 43.6 x787 + 27.58 x788 + 34.08 x789
      + 34.69 x790 + 31 x791 + 32.28 x792 + 30.19 x793 + 59.58 x794 + 24.4 x795
      + 22.46 x796 + 23.46 x797 + 39.88 x798 + 37.71 x799 + 38.42 x800
      + 31.07 x801 + 37.5 x802 + 25.56 x803 + 40 x804 + 53.71 x805 + 60.54 x806
      + 60.2 x807 + 60.36 x808 + 60.24 x809 + 57.85 x810 + 45 x811 + 31.5 x812
      + 29.74 x813 + 46.5 x814 + 43.5 x815 + 28.16 x816 + 26.15 x817
      + 30.12 x818 + 29 x819 + 186.37 x820 + 41.25 x821 + 28 x822 + 37.6 x823
      + 30.8 x824 + 31.73 x825 + 30.76 x826 + 38.6 x827 + 36.5 x828
      + 39.46 x829 + 36.55 x830 + 30.43 x831 + 40.5 x832 + 32.3 x833
      + 35.26 x834 + 33.48 x835 + 57 x836 + 77 x837 + 31.74 x838 + 27.09 x839
      + 344.36 x840 + 64.64 x841 + 34.04 x842 + 40.42 x843
Subject To
 Capacity_1:   x50 + x103 + x151 + x152 + x740 >= 64
 Capacity_2:   x40 + x153 + x154 + x155 + x156 + x157 + x158 + x159 + x160
               + x161 + x162 + x560 + x744 + x745 + x746 + x747 - 0.31 x757
               - 0.21 x789 - 0.43 x794 + x798 + x799 + x800 + 0.57 x801 + x802
               + 0.52 x803 + x804 - 0.28 x823 >= 331
 Capacity_3:   x629 + x688 + x736 >= -151
 Capacity_4:   x555 + x556 + x557 + x558 + x559 + x560 + x561 + 0.58 x836
               >= 174
 Capacity_5:   x691 >= -142
 Capacity_6:   x617 + x627 + x654 + x662 + x685 + x732 + 0.68 x841 >= -16
 Capacity_7:   x460 + x461 >= -96
 Capacity_8:   x96 + x109 + x115 + x131 + x140 + x270 - 0.48 x740 - 0.13 x814
               - 0.15 x821 >= 120
 Capacity_9:   x19 + x45 + x64 + x78 + x142 >= 174
 Capacity_10:  x328 + x329 + x330 + x331 + x332 + x333 + x334 + x335 + x336
               + x337 >= 221
 Capacity_11:  x475 + x480 + x482 + x499 + x510 + x517 + x525 + x535 + x548
               + x564 + x578 + x672 + 0.75 x837 >= 363
 Capacity_12:  x94 + x95 + x96 + x97 + x98 + x99 + x100 + x101 >= 173
 Capacity_13:  x101 + x157 + x167 + x172 + x181 + x214 + x354 >= 33
 Capacity_14:  x481 + x482 + x483 + x484 + x485 + x486 + x487 + x488 >= 108
 Capacity_15:  x305 + x607 + x615 + x625 + x652 + x659 + x715 >= -6
 Capacity_16:  x9 + x10 + x11 + x12 + x13 + x14 >= -34
 Capacity_17:  x327 + x387 + x397 + x405 + x417 + x426 + x455 + x574 >= 147
 Capacity_18:  x695 + x696 >= -30
 Capacity_19:  x6 + x12 + x37 + x71 + x145 + x557 + x677 >= 70
 Capacity_20:  x246 + x247 + x248 + x249 + x250 + x251 + x252 + x253 + x254
               + x255 + x256 + 0.51 x750 + 0.53 x751 + 0.58 x786 >= 89
 Capacity_21:  x302 + x326 + x337 + x352 + x379 + x386 + x396 + x404 + x425
               + x454 + x571 >= 84
 Capacity_22:  x658 + x659 + x660 + x661 + x662 + x663 + x664 >= 3
 Capacity_23:  x18 + x32 + x43 + x62 + x135 >= 31
 Capacity_24:  x294 + x295 + x296 + x297 + x298 + x299 + x300 + x301 + x302
               >= 121
 Capacity_25:  x57 + x271 + x272 + x273 + x274 + x275 + x276 + x277 + x278
               + x279 + x280 + x281 + x282 + x283 + x754 + x755 + x756 + x757
               + x758 + x759 + x789 - 0.3 x791 + 0.6 x822 + x823 + 0.6 x824
               >= 206
 Capacity_26:  x664 + x687 + x734 >= -188
 Capacity_27:  x303 + x304 + x305 + x306 + x307 >= -85
 Capacity_28:  x55 + x76 + x177 >= -7
 Capacity_29:  x674 + x675 + x676 + x677 + x678 >= -45
 Capacity_30:  x628 + x655 + x663 + x686 + x733 >= -75
 Capacity_31:  x582 + x583 + x584 >= 156
 Capacity_32:  x152 + x392 >= -108
 Capacity_33:  x699 + x700 >= -121
 Capacity_34:  x307 + x616 + x661 + x723 >= -87
 Capacity_35:  x34 + x35 + x36 + x37 + x38 + x39 + x40 + 0.57 x794 >= -32
 Capacity_36:  x450 + x539 + x543 + x665 >= 44
 Capacity_37:  x3 + x4 + x5 + x6 + x7 + x8 >= -30
 Capacity_38:  x75 + x174 >= -70
 Capacity_39:  x569 + x570 >= -116
 Capacity_40:  x7 + x13 + x38 + x72 + x148 + x558 + x678 >= -54
 Capacity_41:  x168 + x183 + x189 + x201 + x215 + x227 + x241 + x380
               - 0.26 x767 + x814 - 0.41 x825 - 0.44 x826 >= 29
 Capacity_42:  x51 + x83 + x104 + x163 + x738 + x741 - 0.29 x785 >= 8
 Capacity_43:  x308 + x309 + x310 + x311 + x312 + x313 + x314 + x315 + x316
               - 0.49 x763 - 0.39 x764 - 0.38 x766 + x790 >= -1
 Capacity_44:  x28 + x110 - 0.23 x738 >= -71
 Capacity_45:  x178 + x179 + x180 + x181 + x182 + x183 + x184 + x185 + x186
               + 0.51 x748 - 0.27 x790 >= 36
 Capacity_46:  x476 + x484 + x511 + x526 + x536 + x550 + x565 + x579 + x591
               + x679 + x778 - 0.18 x781 - 0.25 x783 + x793 + x831 + x835
               - 0.41 x839 >= 93
 Capacity_47:  x724 + x725 >= -86
 Capacity_48:  x398 + x408 + x420 + x429 + x437 + x456 + x603 + x769
               - 0.31 x793 - 0.31 x831 - 0.24 x835 + x842 + x843 >= 55
 Capacity_49:  x680 + x681 + x682 >= -45
 Capacity_50:  x107 + x112 + x122 + x129 + x138 + x211 - 0.44 x741 + x785 >= 39
 Capacity_51:  x363 + x364 + x365 + x366 + x367 + x368 + x763 + x764 + x765
               + x766 >= 8
 Capacity_52:  x224 + x239 + x281 + x293 + x295 + x330 + x347 + x359 + x372
               + x464 - 0.18 x769 - 0.24 x842 - 0.23 x843 >= 28
 Capacity_53:  x585 + x586 + x587 + x588 + x589 + 0.52 x777 >= 18
 Capacity_54:  x596 + x601 + x620 + x634 + x641 + x714 - 0.48 x778 + x781
               + x783 + x839 >= -29
 Capacity_55:  x195 + x208 + x233 + x251 + x264 + x274 + x311 + x402 >= -25
 Capacity_56:  x528 + x529 + x530 + x531 + x532 + x533 + x534 + x535 + x536
               + x537 >= 4
 Capacity_57:  x485 + x512 + x551 + x566 + x586 + x592 + x683 >= -19
 Capacity_58:  x730 + x731 >= -91
 Capacity_59:  x108 + x113 + x123 + x139 + x218 + 0.54 x797 - 0.27 x798 + x820
               >= 184
 Capacity_60:  x371 + x372 + x373 + x374 + x375 + x376 + x377 + x378 + x379
               + x767 - 0.18 x769 - 0.3 x770 - 0.32 x792 + x827 + x828 + x829
               >= 207
 Capacity_61:  x229 + x230 + x231 + x232 + x233 + x234 + x235 + x236 + x237
               + x238 + x239 + 0.56 x749 >= 17
 Capacity_62:  x97 + x116 + x125 + x132 + x141 + x317 - 0.12 x787 - 0.24 x804
               >= 75
 Capacity_63:  x403 + x404 + x405 + x406 + x407 + x408 + x409 + x410
               - 0.31 x793 - 0.27 x832 - 0.3 x833 >= 72
 Capacity_64:  x222 + x255 + x268 + x279 + x291 + x314 + x345 + x357 + x364
               + x462 - 0.49 x750 + 0.51 x763 + x786 + x787 + x788 + x789
               + x790 >= 22
 Capacity_65:  x597 + x598 + x599 + x600 + x601 + x602 + x780 + x781 + x782
               >= 38
 Capacity_66:  x421 + x431 + x439 + x458 + x468 + x491 + x610 >= 37
 Capacity_67:  x162 + x185 + x192 + x205 + x216 + x228 + x242 + x244 + x248
               + x261 + x319 + x393 + x750 - 0.42 x786 - 0.42 x788 - 0.21 x789
               - 0.27 x790 + x804 >= 71
 Capacity_68:  x503 + x504 + x505 + x506 + x507 + x508 + x509 + x510 + x511
               + x512 + x513 + x514 - 0.27 x780 - 0.18 x781 - 0.26 x782 + x793
               + x832 + x833 >= 130
 Capacity_69:  x33 + x44 + x63 + x136 >= -78
 Capacity_70:  x488 + x588 + x599 + x619 + x632 + x667 + x705 >= 128
 Capacity_71:  x127 + x128 + x129 + x130 + x131 + x132 - 0.14 x811 - 0.13 x814
               - 0.13 x815 >= 159
 Capacity_72:  x17 + x31 + x42 + x61 + x134 - 0.13 x820 >= 51
 Capacity_73:  x199 + x200 + x201 + x202 + x203 + x204 + x205 + x206 + x207
               + x208 + x209 + x210 - 0.26 x767 + x811 + 0.59 x812 + 0.58 x813
               + x814 + x815 + 0.58 x816 + 0.55 x817 + 0.56 x818 + 0.52 x819
               - 0.2 x827 - 0.25 x828 - 0.18 x829 >= 227
 Capacity_74:  x99 + x155 + x165 + x171 + x179 + x343 + x798 - 0.28 x823 >= 129
 Capacity_75:  x416 + x417 + x418 + x419 + x420 + x421 + x422 + x423 + x769
               + x770 + x792 >= 236
 Capacity_76:  x399 + x409 + x430 + x438 + x457 + x490 + x604 + x768 + x771
               + x840 >= 291
 Capacity_77:  x692 + x693 + x694 >= 16
 Capacity_78:  x223 + x238 + x256 + x280 + x292 + x315 + x321 + x323 + x329
               + x346 + x358 + x365 + x463 + 0.61 x764 - 0.3 x768 - 0.23 x771
               + x823 - 0.14 x840 >= 258
 Capacity_79:  x590 + x591 + x592 + x593 + x594 + x595 + x596 + 0.52 x778
               + 0.54 x779 + 0.59 x839 >= 253
 Capacity_80:  x381 + x382 + x383 + x384 + x385 + x386 + x387 + x388
               - 0.29 x773 - 0.28 x774 + x791 >= 67
 Capacity_81:  x240 + x241 + x242 - 0.44 x826 >= -106
 Capacity_82:  x53 + x85 + x176 >= -108
 Capacity_83:  x318 + x319 + x320 + x321 + x825 + x826 >= -102
 Capacity_84:  x137 + x138 + x139 + x140 + x141 + x797 >= -65
 Capacity_85:  x46 + x65 + x79 + x144 >= -76
 Capacity_86:  x212 + x213 + x214 + x215 + x216 - 0.41 x825 >= -63
 Capacity_87:  x29 + x126 >= -129
 Capacity_88:  x728 >= -114
 Capacity_89:  x388 + x406 + x418 + x427 + x575 + x791 + x792 - 0.3 x833 >= -72
 Capacity_90:  x650 + x651 + x652 + x653 + x654 + x655 >= -97
 Capacity_91:  x370 - 0.48 x760 >= -139
 Capacity_92:  x448 >= -142
 Capacity_93:  x258 - 0.18 x765 >= -142
 Capacity_94:  x283 + x297 + x332 + x349 + x374 + x466 - 0.3 x791 - 0.32 x792
               >= -68
 Capacity_95:  x576 + x577 + x578 + x579 + x580 >= -66
 Capacity_96:  x611 - 0.44 x784 >= -134
 Capacity_97:  x721 >= -149
 Capacity_98:  x487 + x514 + x552 + x594 + x598 + x697 + 0.73 x780 + x833
               >= -54
 Capacity_99:  x102 + x103 + x104 + x105 + x106 + x107 + x108 + x109
               + 0.52 x740 + 0.56 x741 - 0.46 x797 >= -45
 Capacity_100: x175 >= -145
 c101:         x612 >= -144
 c102:         x553 >= -134
 c103:         x221 + x236 + x245 + x254 + x267 + x290 + x313 + x320 + x339
               + x356 + x434 - 0.3 x761 - 0.49 x762 - 0.38 x766 - 0.19 x772
               + x821 + x825 + x826 >= 20
 c104:         x48 + x81 + x147 >= -67
 c105:         x226 + x227 + x228 >= -79
 c106:         x160 + x190 + x203 + x390 >= -81
 c107:         x453 + x454 + x455 + x456 + x457 + x458 + x459 >= -42
 c108:         x407 + x419 + x428 + x436 + x581 >= -51
 c109:         x666 + x667 + x668 >= -78
 c110:         x100 + x156 + x166 + x180 + x213 + x353 + x799 >= -28
 c111:         x424 + x425 + x426 + x427 + x428 + x429 + x430 + x431 + x432
               + x433 + x771 + x772 + x830 + x843 >= 65
 c112:         x20 + x47 + x66 + x80 + x146 - 0.21 x742 >= -1
 c113:         x259 + x260 + x261 + x262 + x263 + x264 + x265 + x266 + x267
               + x268 + x752 + 0.6 x753 - 0.3 x761 + x787 + 0.58 x788 + x821
               >= 11
 c114:         x86 + x106 + x121 + x128 + x198 + x742 + 0.82 x743 - 0.21 x799
               >= 52
 c115:         x355 + x356 + x357 + x358 + x359 + x360 + x361 + x362 + x760
               + x761 + 0.51 x762 - 0.23 x771 - 0.19 x772 - 0.21 x830
               - 0.23 x843 >= 18
 c116:         x299 + x334 + x350 + x367 + x376 + x383 + x502 + x765
               - 0.29 x773 >= 0
 c117:         x631 + x632 + x633 + x634 + x635 >= 6
 c118:         x442 + x471 + x495 + x505 + x521 + x531 + x645 + x773
               - 0.26 x782 >= 18
 c119:         x706 + x707 >= -78
 c120:         x159 + x202 + x389 >= -134
 c121:         x477 + x478 + x479 + x480 >= -126
 c122:         x690 + x694 + x735 >= -96
 c123:         x59 + x60 + x61 + x62 + x63 + x64 + x65 + x66 + x67 >= -58
 c124:         x602 + x622 + x642 + x648 + x722 + x782 + x784 >= -58
 c125:         x111 + x112 + x113 + x114 + x115 + x116 - 0.15 x752 - 0.12 x787
               - 0.15 x821 >= 15
 c126:         x95 + x114 + x124 + x130 + x257 - 0.15 x752 - 0.27 x800
               - 0.25 x802 - 0.14 x811 - 0.13 x815 >= -2
 c127:         x394 + x395 + x396 + x397 + x398 + x399 + x768 - 0.21 x775
               - 0.31 x831 + x842 >= -24
 c128:         x5 + x11 + x36 + x70 + x143 + x556 + x584 + x676 - 0.44 x744
               - 0.38 x746 - 0.15 x754 + x795 - 0.49 x796 - 0.42 x836 >= 60
 c129:         x287 + x288 + x289 + x290 + x291 + x292 + x293 - 0.3 x768
               - 0.24 x842 >= -65
 c130:         x161 + x184 + x191 + x204 + x230 + x247 + x260 + x391 + x746
               + x747 + x748 + x749 - 0.47 x751 + x752 + x753 - 0.43 x801
               + x802 + x803 - 0.47 x805 + x807 + x808 - 0.45 x810 - 0.41 x812
               + x815 + x816 + x817 - 0.48 x819 - 0.25 x828 >= -51
 c131:         x538 + x539 + x540 - 0.41 x776 >= -97
 c132:         x194 + x207 + x232 + x250 + x263 + x273 + x310 + x401
               - 0.44 x749 + x751 - 0.4 x753 + x754 + x755 - 0.41 x806
               - 0.44 x808 + x809 + x810 - 0.42 x813 - 0.45 x817 + x818 + x819
               + x822 - 0.4 x824 - 0.18 x829 >= -23
 c133:         x562 + x563 + x564 + x565 + x566 + x567 + x776 + x837 + x838
               >= -23
 c134:         x423 + x433 + x440 + x493 + x520 + x529 + x637 + x770
               - 0.26 x834 >= 8
 c135:         x710 + x711 >= -129
 c136:         x225 + x282 + x296 + x316 + x331 + x348 + x360 + x373 + x465
               + x759 - 0.3 x770 - 0.4 x822 + x824 + x827 + x828 + x829 >= -13
 c137:         x158 + x182 + x188 + x200 + x369 + x744 + x745 - 0.49 x748
               + x800 + x801 - 0.48 x803 + x805 + x806 - 0.45 x807 - 0.44 x809
               + x811 + x812 + x813 - 0.42 x816 - 0.44 x818 - 0.2 x827 >= -81
 c138:         x467 + x468 + x469 + x470 + x471 + x472 + x473 + x474 + x475
               + x476 + x775 + x831 - 0.25 x837 - 0.31 x838 >= -26
 c139:         x498 + x508 + x523 + x533 + x546 + x577 + x670 + x834 >= -8
 c140:         x726 + x727 >= -132
 c141:         x8 + x14 + x39 + x73 + x150 + x559 - 0.39 x745 - 0.44 x747
               - 0.15 x755 - 0.11 x759 - 0.48 x795 + x796 + x836 >= 34
 c142:         x640 + x641 + x642 + x643 >= -67
 c143:         x605 + x606 + x607 + x608 >= -53
 c144:         x435 + x436 + x437 + x438 + x439 + x440 + x441 + x442 + x443
               + x444 + x773 + x774 - 0.26 x834 - 0.24 x835 >= 238
 c145:         x92 >= -120
 c146:         x74 + x169 + x561 - 0.24 x756 >= -94
 c147:         x638 + x639 >= -113
 c148:         x716 >= -119
 c149:         x301 + x336 + x378 + x385 + x554 >= -95
 c150:         x338 + x339 >= -107
 c151:         x275 + x411 + x756 >= -112
 c152:         x515 + x516 + x517 + x518 >= -99
 c153:         x21 + x49 + x67 + x82 + x149 >= -31
 c154:         x243 + x244 + x245 >= -62
 c155:         x197 + x210 + x220 + x235 + x253 + x266 + x277 + x289 + x312
               + x415 >= -7
 c156:         x519 + x520 + x521 + x522 + x523 + x524 + x525 + x526 + x527
               >= 6
 c157:         x186 + x193 + x206 + x231 + x249 + x262 + x272 + x288 + x309
               + x400 >= -3
 c158:         x489 + x490 + x491 + x492 + x493 + x494 + x495 + x496 + x497
               + x498 + x499 >= 38
 c159:         x441 + x470 + x494 + x504 + x530 + x644 >= -13
 c160:         x701 >= -89
 c161:         x474 + x509 + x524 + x534 + x547 + x563 + x671 >= -16
 c162:         x712 >= -99
 c163:         x286 + x300 + x325 + x335 + x351 + x362 + x368 + x377 + x395
               + x542 + x543 + x761 + x762 + x766 + x767 - 0.21 x775
               - 0.21 x830 >= 265
 c164:         x500 >= -119
 c165:         x340 >= -117
 c166:         x341 >= -112
 c167:         x445 >= -117
 c168:         x446 >= -116
 c169:         x170 + x171 + x172 >= -133
 c170:         x702 + x703 >= -74
 c171:         x98 + x154 + x342 - 0.31 x757 >= -117
 c172:         x483 + x549 + x673 >= -98
 c173:         x704 >= -132
 c174:         x68 >= -149
 c175:         x621 + x647 + x717 >= -130
 c176:         x15 + x16 + x17 + x18 + x19 + x20 + x21 >= -103
 c177:         x52 + x84 + x105 + x173 + x739 >= 17
 c178:         x344 + x345 + x346 + x347 + x348 + x349 + x350 + x351 + x352
               >= 53
 c179:         x24 + x88 - 0.22 x739 >= -81
 c180:         x187 + x188 + x189 + x190 + x191 + x192 + x193 + x194 + x195
               + x196 + x197 + 0.53 x805 + 0.59 x806 + 0.55 x807 + 0.56 x808
               + 0.56 x809 + 0.55 x810 >= 122
 c181:         x443 + x472 + x479 + x496 + x506 + x516 + x522 + x532 + x656
               + x774 >= 68
 c182:         x718 + x719 >= -74
 c183:         x298 + x324 + x333 + x361 + x366 + x375 + x382 + x501 + x760
               - 0.28 x774 >= 19
 c184:         x646 + x647 + x648 + x649 + x784 >= 13
 c185:         x412 >= -117
 c186:         x269 >= -119
 c187:         x196 + x209 + x234 + x252 + x265 + x276 + x414 >= -59
 c188:         x609 >= -87
 c189:         x30 + x133 >= -96
 c190:         x322 + x323 + x324 + x325 + x326 + x327 >= -57
 c191:         x26 + x90 >= -77
 c192:         x219 + x220 + x221 + x222 + x223 + x224 + x225 >= 6
 c193:         x56 + x118 + x217 >= -129
 c194:         x449 + x450 + x451 >= -137
 c195:         x413 >= -119
 c196:         x25 + x89 >= -100
 c197:         x164 + x165 + x166 + x167 + x168 >= -54
 c198:         x444 + x473 + x497 + x507 + x545 + x657 >= -43
 c199:         x713 >= -106
 c200:         x58 + x119 + x284 - 0.49 x758 >= -116
 c201:         x568 >= -146
 c202:         x237 + x278 + x447 + x757 + x758 >= -122
 c203:         x624 + x625 + x626 + x627 + x628 + x629 + x630 >= -89
 c204:         x452 >= -120
 c205:         x636 >= -123
 c206:         x91 >= -151
 c207:         x285 + x286 >= -140
 c208:         x623 + x635 + x643 + x649 + x682 + x729 >= -94
 c209:         x41 + x42 + x43 + x44 + x45 + x46 + x47 + x48 + x49 + x50 + x51
               + x52 + x53 >= 56
 c210:         x384 + x541 >= -146
 c211:         x698 >= -144
 c212:         x27 + x93 >= -103
 c213:         x669 >= -89
 c214:         x544 + x545 + x546 + x547 + x548 + x549 + x550 + x551 + x552
               - 0.25 x783 + x834 + x835 >= 134
 c215:         x304 + x606 + x614 + x651 + x708 >= 14
 c216:         x54 + x55 + x56 + x57 + x58 >= -7
 c217:         x2 + x87 >= -127
 c218:         x572 + x573 >= -92
 c219:         x1 + x2 + x681 + x693 + x703 + x707 >= -124
 c220:         x410 + x422 + x432 + x459 + x469 + x478 + x492 + x613 + x614
               + x615 + x616 + x617 + x772 + x775 + x830 - 0.27 x832
               - 0.31 x838 - 0.32 x841 >= 400
 c221:         x618 + x619 + x620 + x621 + x622 + x623 + x783 >= 91
 c222:         x486 + x513 + x518 + x527 + x537 + x567 + x580 + x587 + x593
               + x684 + x685 + x686 + x687 + x688 + x776 + x777 + x779 + x832
               + x838 + x841 >= 440
 c223:         x451 + x540 + x689 + x690 >= -33
 c224:         x589 + x595 + x600 + x633 + x668 + x709 - 0.48 x777 - 0.46 x779
               >= 0
 c225:         x306 + x608 + x626 + x639 + x653 + x660 + x720 >= -20
 c226:         x630 + x737 >= -154
 c227:         x22 + x696 + x711 + x719 + x725 + x727 + x731 >= -132
 c228:         x23 + x24 + x25 + x26 + x27 + x28 + x29 + x30 + x31 + x32 + x33
               + x570 - 0.23 x738 - 0.22 x739 >= 20
 c229:         x69 + x70 + x71 + x72 + x73 + x74 + x75 + x76 + 0.52 x795
               + 0.51 x796 >= 153
 c230:         x77 + x78 + x79 + x80 + x81 + x82 + x83 + x84 + x85 + x86 + x738
               + x739 - 0.21 x742 - 0.18 x743 - 0.29 x785 >= 107
 c231:         x16 + x60 + x117 + x118 + x119 >= -44
 c232:         x4 + x10 + x35 + x120 + x121 + x122 + x123 + x124 + x125 + x461
               + x573 + x583 + x675 + x700 + x742 + x743 + x785 + x794
               - 0.27 x798 - 0.21 x799 - 0.27 x800 - 0.25 x802 - 0.24 x804
               >= 601
 c233:         x17 <= 9
 c234:         x45 <= 26
 c235:         x73 + x796 <= 38
 c236:         x78 <= 73
 c237:         x99 <= 49
 c238:         x101 <= 14
 c239:         x103 + x740 <= 16
 c240:         x121 + x742 + x743 <= 26
 c241:         x122 + x785 <= 37
 c242:         x123 <= 75
 c243:         x125 <= 37
 c244:         x131 <= 62
 c245:         x161 + x746 + x747 + x802 + x803 <= 14
 c246:         x179 <= 18
 c247:         x189 <= 28
 c248:         x192 <= 18
 c249:         x206 <= 17
 c250:         x239 <= 9
 c251:         x250 + x751 <= 10
 c252:         x254 <= 19
 c253:         x268 + x787 + x788 <= 7
 c254:         x278 + x757 + x758 <= 9
 c255:         x298 <= 10
 c256:         x302 <= 8
 c257:         x329 <= 53
 c258:         x346 <= 24
 c259:         x362 + x761 + x762 <= 25
 c260:         x377 + x767 <= 56
 c261:         x388 + x791 <= 10
 c262:         x399 + x768 <= 20
 c263:         x409 <= 35
 c264:         x417 <= 53
 c265:         x418 + x792 <= 12
 c266:         x421 <= 32
 c267:         x432 + x772 + x830 <= 33
 c268:         x437 <= 28
 c269:         x443 + x774 <= 53
 c270:         x469 + x775 <= 22
 c271:         x482 <= 24
 c272:         x490 <= 19
 c273:         x510 <= 45
 c274:         x548 <= 69
 c275:         x556 <= 46
 c276:         x557 <= 25
 c277:         x583 <= 147
 c278:         x587 + x777 <= 29
 c279:         x591 + x778 <= 29
 c280:         x595 <= 40
 c281:         x599 <= 19
 c282:         x619 <= 40
 c283:         x648 + x784 <= 7
 c284:         x694 <= 8
 c285:         x19 <= 14
 c286:         x42 <= 16
 c287:         x50 <= 34
 c288:         x70 + x795 <= 33
 c289:         x100 <= 21
 c290:         x113 <= 34
 c291:         x132 <= 36
 c292:         x155 + x798 <= 45
 c293:         x158 + x744 + x745 + x800 + x801 <= 13
 c294:         x193 <= 11
 c295:         x205 <= 28
 c296:         x210 <= 13
 c297:         x256 <= 23
 c298:         x275 + x756 <= 5
 c299:         x280 + x823 <= 56
 c300:         x300 <= 44
 c301:         x333 <= 10
 c302:         x337 <= 14
 c303:         x358 <= 19
 c304:         x372 <= 16
 c305:         x374 <= 10
 c306:         x387 <= 56
 c307:         x410 <= 41
 c308:         x420 + x769 <= 32
 c309:         x422 <= 92
 c310:         x430 + x771 <= 34
 c311:         x438 <= 85
 c312:         x442 + x773 <= 30
 c313:         x488 <= 34
 c314:         x499 <= 27
 c315:         x513 + x832 <= 36
 c316:         x535 <= 22
 c317:         x539 <= 16
 c318:         x550 + x835 <= 26
 c319:         x558 <= 24
 c320:         x559 + x836 <= 42
 c321:         x567 + x776 + x838 <= 17
 c322:         x594 <= 11
 c323:         x602 + x782 <= 9
 c324:         x620 + x783 <= 19
 c325:         x647 <= 5
 c326:         x675 <= 59
 c327:         x61 <= 16
 c328:         x64 <= 21
 c329:         x72 <= 27
 c330:         x124 <= 25
 c331:         x139 + x797 <= 14
 c332:         x156 + x799 <= 20
 c333:         x165 <= 12
 c334:         x196 <= 7
 c335:         x202 <= 6
 c336:         x248 + x750 <= 15
 c337:         x273 + x754 + x755 + x822 <= 15
 c338:         x279 + x789 <= 24
 c339:         x299 <= 14
 c340:         x321 <= 11
 c341:         x332 <= 10
 c342:         x335 <= 51
 c343:         x352 <= 8
 c344:         x378 <= 5
 c345:         x405 <= 27
 c346:         x419 <= 16
 c347:         x440 <= 28
 c348:         x457 <= 16
 c349:         x459 <= 17
 c350:         x511 + x793 <= 16
 c351:         x517 <= 8
 c352:         x527 <= 18
 c353:         x546 + x834 <= 20
 c354:         x593 + x779 <= 72
 c355:         x598 + x780 <= 6
 c356:         x621 <= 6
 c357:         x667 <= 9
 c358:         x35 + x794 <= 19
 c359:         x108 <= 17
 c360:         x160 <= 9
 c361:         x162 + x804 <= 30
 c362:         x184 + x748 <= 8
 c363:         x190 <= 7
 c364:         x204 + x815 + x816 + x817 <= 17
 c365:         x249 <= 8
 c366:         x282 + x759 + x824 <= 16
 c367:         x292 <= 11
 c368:         x301 <= 5
 c369:         x325 <= 10
 c370:         x334 <= 18
 c371:         x373 + x827 + x828 + x829 <= 16
 c372:         x379 <= 37
 c373:         x444 <= 17
 c374:         x475 <= 25
 c375:         x492 <= 25
 c376:         x504 <= 13
 c377:         x518 <= 6
 c378:         x551 <= 17
 c379:         x588 <= 16
 c380:         x596 + x839 <= 19
 c381:         x601 + x781 <= 8
 c382:         x622 <= 16
 c383:         x10 <= 50
 c384:         x154 <= 11
 c385:         x195 <= 9
 c386:         x200 + x811 + x812 + x813 <= 16
 c387:         x223 <= 19
 c388:         x251 <= 7
 c389:         x272 <= 18
 c390:         x297 <= 6
 c391:         x330 <= 21
 c392:         x376 <= 22
 c393:         x478 <= 8
 c394:         x564 + x837 <= 27
 c395:         x592 <= 17
 c396:         x687 <= 26
 c397:         x159 <= 6
 c398:         x188 + x805 + x806 <= 8
 c399:         x209 <= 10
 c400:         x253 <= 8
 c401:         x274 <= 16
 c402:         x296 <= 12
 c403:         x315 <= 21
 c404:         x331 <= 14
 c405:         x375 <= 30
 c406:         x573 <= 30
 c407:         x578 <= 13
 c408:         x580 <= 13
 c409:         x615 <= 44
 c410:         x4 <= 55
 c411:         x71 <= 60
 c412:         x194 + x809 + x810 <= 11
 c413:         x201 + x814 <= 50
 c414:         x276 <= 12
 c415:         x295 <= 16
 c416:         x336 <= 7
 c417:         x476 + x831 <= 8
 c418:         x525 <= 28
 c419:         x537 <= 17
 c420:         x617 <= 73
 c421:         x191 + x807 + x808 <= 11
 c422:         x203 <= 10
 c423:         x281 <= 21
 c424:         x480 <= 9
 c425:         x486 <= 53
 c426:         x526 <= 10
 c427:         x632 <= 18
 c428:         x688 <= 71
 c429:         x197 <= 11
 c430:         x207 + x818 + x819 <= 18
 c431:         x283 <= 8
 c432:         x685 + x841 <= 78
 c433:         x208 <= 13
 c434:         x62 <= 12
 c435:         x96 <= 66
 c436:         x129 <= 33
 c437:         x320 + x825 + x826 <= 10
 c438:         x323 <= 10
 c439:         x514 + x833 <= 7
 c440:         x238 <= 20
End
